NAME : rc207.1.7853659.tour
COMMENT : Length = 7853659
COMMENT : Found by LKH [Keld Helsgaun] Tue May  2 05:50:33 2017
TYPE : TOUR
DIMENSION : 34
TOUR_SECTION
1
15
3
2
28
32
20
22
23
11
12
14
13
19
30
25
33
34
18
26
27
17
10
7
6
8
9
29
16
5
4
21
31
24
-1
EOF
